(declare-const in0 Int)
(declare-const in2 Int)
(declare-const in1 Int)
(declare-const in4 Int)
(declare-const in3 Int)

(assert (and (and (and (and (and (and (and (and (and (and (and (and (and (and (and (and (and (and (and (and (and (and (and (and (and (and (and (and (and (and (and (and (and (and (and (and (and (and (and (and (and (and (and (and (and (and (and (and (and (and (and (and (and (and (and (and (and (and (and (and (and (and (and (and (and (and (and (and (and (and (and (and (and (and (and (and (and (and (and (and (and (and (and (and (and (and (and (and (and (and (and (and (and (and (and (and (and (and (and (and (and (and (and (and (and (and (and (and (and (and (and (and (and (and (and (and (and (and (and (and (and (and (and (and (and (and (and (and (and (and (and (and (and (and (and (and (and (and (and (and (and (and (and (and (and (and (and (and (and (and (and (and (and (and (and (and (and (and (and (and (and (and (and (and (and (and (and (and (and (and (and (and (and (and (and (and (and (and (and (and (and (and (and (and (and (and (and (and (and (and (and (and (and (and (and (and (and (and (and  ( <  0 ( /  ( +  in4 ( +  in3 ( +  in2 ( +  in1 in0)))) 5))  ( <  1 ( /  ( +  in4 ( +  in3 ( +  in2 ( +  in1 in0)))) 5)))  ( <  2 ( /  ( +  in4 ( +  in3 ( +  in2 ( +  in1 in0)))) 5)))  ( <  3 ( /  ( +  in4 ( +  in3 ( +  in2 ( +  in1 in0)))) 5)))  ( <  4 ( /  ( +  in4 ( +  in3 ( +  in2 ( +  in1 in0)))) 5)))  ( <  5 ( /  ( +  in4 ( +  in3 ( +  in2 ( +  in1 in0)))) 5)))  ( <  6 ( /  ( +  in4 ( +  in3 ( +  in2 ( +  in1 in0)))) 5)))  ( <  7 ( /  ( +  in4 ( +  in3 ( +  in2 ( +  in1 in0)))) 5)))  ( <  8 ( /  ( +  in4 ( +  in3 ( +  in2 ( +  in1 in0)))) 5)))  ( <  9 ( /  ( +  in4 ( +  in3 ( +  in2 ( +  in1 in0)))) 5)))  ( <  10 ( /  ( +  in4 ( +  in3 ( +  in2 ( +  in1 in0)))) 5)))  ( <  11 ( /  ( +  in4 ( +  in3 ( +  in2 ( +  in1 in0)))) 5)))  ( <  12 ( /  ( +  in4 ( +  in3 ( +  in2 ( +  in1 in0)))) 5)))  ( <  13 ( /  ( +  in4 ( +  in3 ( +  in2 ( +  in1 in0)))) 5)))  ( <  14 ( /  ( +  in4 ( +  in3 ( +  in2 ( +  in1 in0)))) 5)))  ( <  15 ( /  ( +  in4 ( +  in3 ( +  in2 ( +  in1 in0)))) 5)))  ( <  16 ( /  ( +  in4 ( +  in3 ( +  in2 ( +  in1 in0)))) 5)))  ( <  17 ( /  ( +  in4 ( +  in3 ( +  in2 ( +  in1 in0)))) 5)))  ( <  18 ( /  ( +  in4 ( +  in3 ( +  in2 ( +  in1 in0)))) 5)))  ( <  19 ( /  ( +  in4 ( +  in3 ( +  in2 ( +  in1 in0)))) 5)))  ( <  20 ( /  ( +  in4 ( +  in3 ( +  in2 ( +  in1 in0)))) 5)))  ( <  21 ( /  ( +  in4 ( +  in3 ( +  in2 ( +  in1 in0)))) 5)))  ( <  22 ( /  ( +  in4 ( +  in3 ( +  in2 ( +  in1 in0)))) 5)))  ( <  23 ( /  ( +  in4 ( +  in3 ( +  in2 ( +  in1 in0)))) 5)))  ( <  24 ( /  ( +  in4 ( +  in3 ( +  in2 ( +  in1 in0)))) 5)))  ( <  25 ( /  ( +  in4 ( +  in3 ( +  in2 ( +  in1 in0)))) 5)))  ( <  26 ( /  ( +  in4 ( +  in3 ( +  in2 ( +  in1 in0)))) 5)))  ( <  27 ( /  ( +  in4 ( +  in3 ( +  in2 ( +  in1 in0)))) 5)))  ( <  28 ( /  ( +  in4 ( +  in3 ( +  in2 ( +  in1 in0)))) 5)))  ( <  29 ( /  ( +  in4 ( +  in3 ( +  in2 ( +  in1 in0)))) 5)))  ( <  30 ( /  ( +  in4 ( +  in3 ( +  in2 ( +  in1 in0)))) 5)))  ( <  31 ( /  ( +  in4 ( +  in3 ( +  in2 ( +  in1 in0)))) 5)))  ( <  32 ( /  ( +  in4 ( +  in3 ( +  in2 ( +  in1 in0)))) 5)))  ( <  33 ( /  ( +  in4 ( +  in3 ( +  in2 ( +  in1 in0)))) 5)))  ( <  34 ( /  ( +  in4 ( +  in3 ( +  in2 ( +  in1 in0)))) 5)))  ( <  35 ( /  ( +  in4 ( +  in3 ( +  in2 ( +  in1 in0)))) 5)))  ( <  36 ( /  ( +  in4 ( +  in3 ( +  in2 ( +  in1 in0)))) 5)))  ( <  37 ( /  ( +  in4 ( +  in3 ( +  in2 ( +  in1 in0)))) 5)))  ( <  38 ( /  ( +  in4 ( +  in3 ( +  in2 ( +  in1 in0)))) 5)))  ( <  39 ( /  ( +  in4 ( +  in3 ( +  in2 ( +  in1 in0)))) 5)))  ( <  40 ( /  ( +  in4 ( +  in3 ( +  in2 ( +  in1 in0)))) 5)))  ( <  41 ( /  ( +  in4 ( +  in3 ( +  in2 ( +  in1 in0)))) 5)))  ( <  42 ( /  ( +  in4 ( +  in3 ( +  in2 ( +  in1 in0)))) 5)))  ( <  43 ( /  ( +  in4 ( +  in3 ( +  in2 ( +  in1 in0)))) 5)))  ( <  44 ( /  ( +  in4 ( +  in3 ( +  in2 ( +  in1 in0)))) 5)))  ( <  45 ( /  ( +  in4 ( +  in3 ( +  in2 ( +  in1 in0)))) 5)))  ( <  46 ( /  ( +  in4 ( +  in3 ( +  in2 ( +  in1 in0)))) 5)))  ( <  47 ( /  ( +  in4 ( +  in3 ( +  in2 ( +  in1 in0)))) 5)))  ( <  48 ( /  ( +  in4 ( +  in3 ( +  in2 ( +  in1 in0)))) 5)))  ( <  49 ( /  ( +  in4 ( +  in3 ( +  in2 ( +  in1 in0)))) 5)))  ( <  50 ( /  ( +  in4 ( +  in3 ( +  in2 ( +  in1 in0)))) 5)))  ( <  51 ( /  ( +  in4 ( +  in3 ( +  in2 ( +  in1 in0)))) 5)))  ( <  52 ( /  ( +  in4 ( +  in3 ( +  in2 ( +  in1 in0)))) 5)))  ( <  53 ( /  ( +  in4 ( +  in3 ( +  in2 ( +  in1 in0)))) 5)))  ( <  54 ( /  ( +  in4 ( +  in3 ( +  in2 ( +  in1 in0)))) 5)))  ( <  55 ( /  ( +  in4 ( +  in3 ( +  in2 ( +  in1 in0)))) 5)))  ( <  56 ( /  ( +  in4 ( +  in3 ( +  in2 ( +  in1 in0)))) 5)))  ( <  57 ( /  ( +  in4 ( +  in3 ( +  in2 ( +  in1 in0)))) 5)))  ( <  58 ( /  ( +  in4 ( +  in3 ( +  in2 ( +  in1 in0)))) 5)))  ( <  59 ( /  ( +  in4 ( +  in3 ( +  in2 ( +  in1 in0)))) 5)))  ( <  60 ( /  ( +  in4 ( +  in3 ( +  in2 ( +  in1 in0)))) 5)))  ( <  61 ( /  ( +  in4 ( +  in3 ( +  in2 ( +  in1 in0)))) 5)))  ( <  62 ( /  ( +  in4 ( +  in3 ( +  in2 ( +  in1 in0)))) 5)))  ( <  63 ( /  ( +  in4 ( +  in3 ( +  in2 ( +  in1 in0)))) 5)))  ( <  64 ( /  ( +  in4 ( +  in3 ( +  in2 ( +  in1 in0)))) 5)))  ( <  65 ( /  ( +  in4 ( +  in3 ( +  in2 ( +  in1 in0)))) 5)))  ( <  66 ( /  ( +  in4 ( +  in3 ( +  in2 ( +  in1 in0)))) 5)))  ( <  67 ( /  ( +  in4 ( +  in3 ( +  in2 ( +  in1 in0)))) 5)))  ( <  68 ( /  ( +  in4 ( +  in3 ( +  in2 ( +  in1 in0)))) 5)))  ( <  69 ( /  ( +  in4 ( +  in3 ( +  in2 ( +  in1 in0)))) 5)))  ( <  70 ( /  ( +  in4 ( +  in3 ( +  in2 ( +  in1 in0)))) 5)))  ( <  71 ( /  ( +  in4 ( +  in3 ( +  in2 ( +  in1 in0)))) 5)))  ( <  72 ( /  ( +  in4 ( +  in3 ( +  in2 ( +  in1 in0)))) 5)))  ( <  73 ( /  ( +  in4 ( +  in3 ( +  in2 ( +  in1 in0)))) 5)))  ( <  74 ( /  ( +  in4 ( +  in3 ( +  in2 ( +  in1 in0)))) 5)))  ( <  75 ( /  ( +  in4 ( +  in3 ( +  in2 ( +  in1 in0)))) 5)))  ( <  76 ( /  ( +  in4 ( +  in3 ( +  in2 ( +  in1 in0)))) 5)))  ( <  77 ( /  ( +  in4 ( +  in3 ( +  in2 ( +  in1 in0)))) 5)))  ( <  78 ( /  ( +  in4 ( +  in3 ( +  in2 ( +  in1 in0)))) 5)))  ( <  79 ( /  ( +  in4 ( +  in3 ( +  in2 ( +  in1 in0)))) 5)))  ( <  80 ( /  ( +  in4 ( +  in3 ( +  in2 ( +  in1 in0)))) 5)))  ( <  81 ( /  ( +  in4 ( +  in3 ( +  in2 ( +  in1 in0)))) 5)))  ( <  82 ( /  ( +  in4 ( +  in3 ( +  in2 ( +  in1 in0)))) 5)))  ( <  83 ( /  ( +  in4 ( +  in3 ( +  in2 ( +  in1 in0)))) 5)))  ( <  84 ( /  ( +  in4 ( +  in3 ( +  in2 ( +  in1 in0)))) 5)))  ( <  85 ( /  ( +  in4 ( +  in3 ( +  in2 ( +  in1 in0)))) 5)))  ( <  86 ( /  ( +  in4 ( +  in3 ( +  in2 ( +  in1 in0)))) 5)))  ( <  87 ( /  ( +  in4 ( +  in3 ( +  in2 ( +  in1 in0)))) 5)))  ( <  88 ( /  ( +  in4 ( +  in3 ( +  in2 ( +  in1 in0)))) 5)))  ( <  89 ( /  ( +  in4 ( +  in3 ( +  in2 ( +  in1 in0)))) 5)))  ( <  90 ( /  ( +  in4 ( +  in3 ( +  in2 ( +  in1 in0)))) 5)))  ( <  91 ( /  ( +  in4 ( +  in3 ( +  in2 ( +  in1 in0)))) 5)))  ( <  92 ( /  ( +  in4 ( +  in3 ( +  in2 ( +  in1 in0)))) 5)))  ( <  93 ( /  ( +  in4 ( +  in3 ( +  in2 ( +  in1 in0)))) 5)))  ( <  94 ( /  ( +  in4 ( +  in3 ( +  in2 ( +  in1 in0)))) 5)))  ( <  95 ( /  ( +  in4 ( +  in3 ( +  in2 ( +  in1 in0)))) 5)))  ( <  96 ( /  ( +  in4 ( +  in3 ( +  in2 ( +  in1 in0)))) 5)))  ( <  97 ( /  ( +  in4 ( +  in3 ( +  in2 ( +  in1 in0)))) 5)))  ( <  98 ( /  ( +  in4 ( +  in3 ( +  in2 ( +  in1 in0)))) 5)))  ( <  99 ( /  ( +  in4 ( +  in3 ( +  in2 ( +  in1 in0)))) 5)))  ( <  100 ( /  ( +  in4 ( +  in3 ( +  in2 ( +  in1 in0)))) 5)))  ( <  101 ( /  ( +  in4 ( +  in3 ( +  in2 ( +  in1 in0)))) 5)))  ( <  102 ( /  ( +  in4 ( +  in3 ( +  in2 ( +  in1 in0)))) 5)))  ( <  103 ( /  ( +  in4 ( +  in3 ( +  in2 ( +  in1 in0)))) 5)))  ( <  104 ( /  ( +  in4 ( +  in3 ( +  in2 ( +  in1 in0)))) 5)))  ( <  105 ( /  ( +  in4 ( +  in3 ( +  in2 ( +  in1 in0)))) 5)))  ( <  106 ( /  ( +  in4 ( +  in3 ( +  in2 ( +  in1 in0)))) 5)))  ( <  107 ( /  ( +  in4 ( +  in3 ( +  in2 ( +  in1 in0)))) 5)))  ( <  108 ( /  ( +  in4 ( +  in3 ( +  in2 ( +  in1 in0)))) 5)))  ( <  109 ( /  ( +  in4 ( +  in3 ( +  in2 ( +  in1 in0)))) 5)))  ( <  110 ( /  ( +  in4 ( +  in3 ( +  in2 ( +  in1 in0)))) 5)))  ( <  111 ( /  ( +  in4 ( +  in3 ( +  in2 ( +  in1 in0)))) 5)))  ( <  112 ( /  ( +  in4 ( +  in3 ( +  in2 ( +  in1 in0)))) 5)))  ( <  113 ( /  ( +  in4 ( +  in3 ( +  in2 ( +  in1 in0)))) 5)))  ( <  114 ( /  ( +  in4 ( +  in3 ( +  in2 ( +  in1 in0)))) 5)))  ( <  115 ( /  ( +  in4 ( +  in3 ( +  in2 ( +  in1 in0)))) 5)))  ( <  116 ( /  ( +  in4 ( +  in3 ( +  in2 ( +  in1 in0)))) 5)))  ( <  117 ( /  ( +  in4 ( +  in3 ( +  in2 ( +  in1 in0)))) 5)))  ( <  118 ( /  ( +  in4 ( +  in3 ( +  in2 ( +  in1 in0)))) 5)))  ( <  119 ( /  ( +  in4 ( +  in3 ( +  in2 ( +  in1 in0)))) 5)))  ( <  120 ( /  ( +  in4 ( +  in3 ( +  in2 ( +  in1 in0)))) 5)))  ( <  121 ( /  ( +  in4 ( +  in3 ( +  in2 ( +  in1 in0)))) 5)))  ( <  122 ( /  ( +  in4 ( +  in3 ( +  in2 ( +  in1 in0)))) 5)))  ( <  123 ( /  ( +  in4 ( +  in3 ( +  in2 ( +  in1 in0)))) 5)))  ( <  124 ( /  ( +  in4 ( +  in3 ( +  in2 ( +  in1 in0)))) 5)))  ( <  125 ( /  ( +  in4 ( +  in3 ( +  in2 ( +  in1 in0)))) 5)))  ( <  126 ( /  ( +  in4 ( +  in3 ( +  in2 ( +  in1 in0)))) 5)))  ( <  127 ( /  ( +  in4 ( +  in3 ( +  in2 ( +  in1 in0)))) 5)))  ( <  128 ( /  ( +  in4 ( +  in3 ( +  in2 ( +  in1 in0)))) 5)))  ( <  129 ( /  ( +  in4 ( +  in3 ( +  in2 ( +  in1 in0)))) 5)))  ( <  130 ( /  ( +  in4 ( +  in3 ( +  in2 ( +  in1 in0)))) 5)))  ( <  131 ( /  ( +  in4 ( +  in3 ( +  in2 ( +  in1 in0)))) 5)))  ( <  132 ( /  ( +  in4 ( +  in3 ( +  in2 ( +  in1 in0)))) 5)))  ( <  133 ( /  ( +  in4 ( +  in3 ( +  in2 ( +  in1 in0)))) 5)))  ( <  134 ( /  ( +  in4 ( +  in3 ( +  in2 ( +  in1 in0)))) 5)))  ( <  135 ( /  ( +  in4 ( +  in3 ( +  in2 ( +  in1 in0)))) 5)))  ( <  136 ( /  ( +  in4 ( +  in3 ( +  in2 ( +  in1 in0)))) 5)))  ( <  137 ( /  ( +  in4 ( +  in3 ( +  in2 ( +  in1 in0)))) 5)))  ( <  138 ( /  ( +  in4 ( +  in3 ( +  in2 ( +  in1 in0)))) 5)))  ( <  139 ( /  ( +  in4 ( +  in3 ( +  in2 ( +  in1 in0)))) 5)))  ( <  140 ( /  ( +  in4 ( +  in3 ( +  in2 ( +  in1 in0)))) 5)))  ( <  141 ( /  ( +  in4 ( +  in3 ( +  in2 ( +  in1 in0)))) 5)))  ( <  142 ( /  ( +  in4 ( +  in3 ( +  in2 ( +  in1 in0)))) 5)))  ( <  143 ( /  ( +  in4 ( +  in3 ( +  in2 ( +  in1 in0)))) 5)))  ( <  144 ( /  ( +  in4 ( +  in3 ( +  in2 ( +  in1 in0)))) 5)))  ( <  145 ( /  ( +  in4 ( +  in3 ( +  in2 ( +  in1 in0)))) 5)))  ( <  146 ( /  ( +  in4 ( +  in3 ( +  in2 ( +  in1 in0)))) 5)))  ( <  147 ( /  ( +  in4 ( +  in3 ( +  in2 ( +  in1 in0)))) 5)))  ( <  148 ( /  ( +  in4 ( +  in3 ( +  in2 ( +  in1 in0)))) 5)))  ( <  149 ( /  ( +  in4 ( +  in3 ( +  in2 ( +  in1 in0)))) 5)))  ( <  150 ( /  ( +  in4 ( +  in3 ( +  in2 ( +  in1 in0)))) 5)))  ( <  151 ( /  ( +  in4 ( +  in3 ( +  in2 ( +  in1 in0)))) 5)))  ( <  152 ( /  ( +  in4 ( +  in3 ( +  in2 ( +  in1 in0)))) 5)))  ( <  153 ( /  ( +  in4 ( +  in3 ( +  in2 ( +  in1 in0)))) 5)))  ( <  154 ( /  ( +  in4 ( +  in3 ( +  in2 ( +  in1 in0)))) 5)))  ( <  155 ( /  ( +  in4 ( +  in3 ( +  in2 ( +  in1 in0)))) 5)))  ( <  156 ( /  ( +  in4 ( +  in3 ( +  in2 ( +  in1 in0)))) 5)))  ( <  157 ( /  ( +  in4 ( +  in3 ( +  in2 ( +  in1 in0)))) 5)))  ( <  158 ( /  ( +  in4 ( +  in3 ( +  in2 ( +  in1 in0)))) 5)))  ( <  159 ( /  ( +  in4 ( +  in3 ( +  in2 ( +  in1 in0)))) 5)))  ( <  160 ( /  ( +  in4 ( +  in3 ( +  in2 ( +  in1 in0)))) 5)))  ( <  161 ( /  ( +  in4 ( +  in3 ( +  in2 ( +  in1 in0)))) 5)))  ( <  162 ( /  ( +  in4 ( +  in3 ( +  in2 ( +  in1 in0)))) 5)))  ( <  163 ( /  ( +  in4 ( +  in3 ( +  in2 ( +  in1 in0)))) 5)))  ( <  164 ( /  ( +  in4 ( +  in3 ( +  in2 ( +  in1 in0)))) 5)))  ( <  165 ( /  ( +  in4 ( +  in3 ( +  in2 ( +  in1 in0)))) 5)))  ( <  166 ( /  ( +  in4 ( +  in3 ( +  in2 ( +  in1 in0)))) 5)))  ( <  167 ( /  ( +  in4 ( +  in3 ( +  in2 ( +  in1 in0)))) 5)))  ( <  168 ( /  ( +  in4 ( +  in3 ( +  in2 ( +  in1 in0)))) 5)))  ( <  169 ( /  ( +  in4 ( +  in3 ( +  in2 ( +  in1 in0)))) 5)))  ( <  170 ( /  ( +  in4 ( +  in3 ( +  in2 ( +  in1 in0)))) 5)))  ( <  171 ( /  ( +  in4 ( +  in3 ( +  in2 ( +  in1 in0)))) 5)))  ( <  172 ( /  ( +  in4 ( +  in3 ( +  in2 ( +  in1 in0)))) 5)))  ( <  173 ( /  ( +  in4 ( +  in3 ( +  in2 ( +  in1 in0)))) 5)))  ( <  174 ( /  ( +  in4 ( +  in3 ( +  in2 ( +  in1 in0)))) 5)))  ( <  175 ( /  ( +  in4 ( +  in3 ( +  in2 ( +  in1 in0)))) 5)))  ( <  176 ( /  ( +  in4 ( +  in3 ( +  in2 ( +  in1 in0)))) 5)))  ( <  177 ( /  ( +  in4 ( +  in3 ( +  in2 ( +  in1 in0)))) 5)))  ( <  178 ( /  ( +  in4 ( +  in3 ( +  in2 ( +  in1 in0)))) 5)))  ( <  179 ( /  ( +  in4 ( +  in3 ( +  in2 ( +  in1 in0)))) 5)))  ( <  180 ( /  ( +  in4 ( +  in3 ( +  in2 ( +  in1 in0)))) 5)))  ( <  181 ( /  ( +  in4 ( +  in3 ( +  in2 ( +  in1 in0)))) 5)))  ( <  182 ( /  ( +  in4 ( +  in3 ( +  in2 ( +  in1 in0)))) 5)))  ( <  183 ( /  ( +  in4 ( +  in3 ( +  in2 ( +  in1 in0)))) 5)))  ( <  184 ( /  ( +  in4 ( +  in3 ( +  in2 ( +  in1 in0)))) 5)))  ( <  185 ( /  ( +  in4 ( +  in3 ( +  in2 ( +  in1 in0)))) 5)))  ( <  186 ( /  ( +  in4 ( +  in3 ( +  in2 ( +  in1 in0)))) 5)))  ( <  187 ( /  ( +  in4 ( +  in3 ( +  in2 ( +  in1 in0)))) 5)))  ( <  188 ( /  ( +  in4 ( +  in3 ( +  in2 ( +  in1 in0)))) 5)))  ( <  189 ( /  ( +  in4 ( +  in3 ( +  in2 ( +  in1 in0)))) 5)))  ( <  190 ( /  ( +  in4 ( +  in3 ( +  in2 ( +  in1 in0)))) 5)))  ( <  191 ( /  ( +  in4 ( +  in3 ( +  in2 ( +  in1 in0)))) 5)))  ( <  192 ( /  ( +  in4 ( +  in3 ( +  in2 ( +  in1 in0)))) 5)))  ( <  193 ( /  ( +  in4 ( +  in3 ( +  in2 ( +  in1 in0)))) 5)))  ( <  194 ( /  ( +  in4 ( +  in3 ( +  in2 ( +  in1 in0)))) 5)))  ( <  195 ( /  ( +  in4 ( +  in3 ( +  in2 ( +  in1 in0)))) 5)))  ( <  196 ( /  ( +  in4 ( +  in3 ( +  in2 ( +  in1 in0)))) 5)))  ( <  197 ( /  ( +  in4 ( +  in3 ( +  in2 ( +  in1 in0)))) 5)))  ( <  198 ( /  ( +  in4 ( +  in3 ( +  in2 ( +  in1 in0)))) 5)))  ( <  199 ( /  ( +  in4 ( +  in3 ( +  in2 ( +  in1 in0)))) 5))))

(check-sat)
(get-model)